; Extract rail0 of a dual rail signal
(define-fun rail0 ((a (_ BitVec 2))) (_ BitVec 1)
    ((_ extract 0 0) a)
)

; Extract rail1 of a dual rail signal
(define-fun rail1 ((a (_ BitVec 2))) (_ BitVec 1)
    ((_ extract 1 1) a)
)
